10
2147483647 56 71 15 82 49 90 81 54 81 
56 2147483647 44 48 63 41 95 64 68 44 
71 44 2147483647 13 11 34 25 100 15 71 
15 48 13 2147483647 54 99 96 94 32 16 
82 63 11 54 2147483647 60 100 64 86 45 
49 41 34 99 60 2147483647 90 30 7 9 
90 95 25 96 100 90 2147483647 44 26 60 
81 64 100 94 64 30 44 2147483647 70 91 
54 68 15 32 86 7 26 70 2147483647 82 
81 44 71 16 45 9 60 91 82 2147483647 
